p wcnf 149 298 299 
1 -102 71 0 
1 -134 53 0 
1 122 29 0 
1 30 13 0 
1 13 -67 0 
1 -13 -20 0 
1 10 -95 0 
1 -47 55 0 
1 143 33 0 
1 64 -102 0 
1 -128 -105 0 
1 -54 100 0 
1 16 117 0 
1 58 79 0 
1 64 -3 0 
1 28 -112 0 
1 -15 -138 0 
1 -4 -86 0 
1 -17 -75 0 
1 -37 -99 0 
1 6 81 0 
1 -98 136 0 
1 -60 -54 0 
1 94 118 0 
1 131 43 0 
1 -36 -2 0 
1 -58 85 0 
1 113 -134 0 
1 72 -136 0 
1 -86 64 0 
1 -9 42 0 
1 11 100 0 
1 61 73 0 
1 6 -87 0 
1 87 -49 0 
1 140 -105 0 
1 96 73 0 
1 -28 -109 0 
1 136 -100 0 
1 17 -5 0 
1 -57 -22 0 
1 -59 29 0 
1 126 -56 0 
1 -31 -142 0 
1 -69 -67 0 
1 19 -47 0 
1 -145 -104 0 
1 101 125 0 
1 -55 -87 0 
1 104 146 0 
1 57 124 0 
1 -27 37 0 
1 21 -42 0 
1 -111 -87 0 
1 83 63 0 
1 7 -140 0 
1 15 62 0 
1 -69 103 0 
1 109 137 0 
1 65 9 0 
1 117 102 0 
1 59 98 0 
1 -91 26 0 
1 88 -21 0 
1 25 106 0 
1 -82 70 0 
1 74 88 0 
1 79 -6 0 
1 1 -35 0 
1 -73 -71 0 
1 78 -129 0 
1 -40 19 0 
1 -32 111 0 
1 -103 -38 0 
1 24 -36 0 
1 -81 97 0 
1 98 3 0 
1 112 42 0 
1 -130 -72 0 
1 17 101 0 
1 51 -46 0 
1 123 117 0 
1 -89 -83 0 
1 86 12 0 
1 -1 20 0 
1 -101 38 0 
1 -148 129 0 
1 -36 143 0 
1 -46 -16 0 
1 94 -124 0 
1 -32 -127 0 
1 125 131 0 
1 83 75 0 
1 15 123 0 
1 58 39 0 
1 -42 -5 0 
1 -145 -113 0 
1 108 43 0 
1 8 21 0 
1 89 -121 0 
1 -140 -142 0 
1 -130 -141 0 
1 68 75 0 
1 -53 -124 0 
1 -13 -44 0 
1 64 65 0 
1 86 63 0 
1 68 -63 0 
1 -52 -19 0 
1 -30 105 0 
1 -21 -124 0 
1 -141 -125 0 
1 -30 23 0 
1 -6 -89 0 
1 93 13 0 
1 -25 134 0 
1 4 -3 0 
1 9 146 0 
1 -131 64 0 
1 -19 28 0 
1 -51 -64 0 
1 -40 121 0 
1 113 -96 0 
1 75 63 0 
1 -11 -2 0 
1 95 10 0 
1 100 -147 0 
1 -64 149 0 
1 -136 144 0 
1 133 -115 0 
1 -123 73 0 
1 103 -19 0 
1 48 -3 0 
1 6 55 0 
1 -103 96 0 
1 122 -91 0 
1 -55 -80 0 
1 -63 -144 0 
1 -111 136 0 
1 126 30 0 
1 105 -53 0 
1 -75 10 0 
1 73 -124 0 
1 -80 116 0 
1 125 64 0 
1 -114 29 0 
1 -48 -98 0 
1 -118 -101 0 
1 -143 -10 0 
1 91 92 0 
1 -1 9 0 
1 -11 -2 0 
1 69 -63 0 
1 58 -18 0 
1 53 -11 0 
1 -148 -59 0 
1 33 114 0 
1 120 -44 0 
1 7 -110 0 
1 59 -27 0 
1 87 39 0 
1 35 95 0 
1 -21 -90 0 
1 53 80 0 
1 47 -77 0 
1 79 57 0 
1 -109 -38 0 
1 -60 3 0 
1 123 133 0 
1 -32 -71 0 
1 48 141 0 
1 -64 -84 0 
1 -10 67 0 
1 56 -117 0 
1 36 9 0 
1 -45 -75 0 
1 118 -123 0 
1 -82 95 0 
1 39 -75 0 
1 91 -82 0 
1 -112 -115 0 
1 -137 79 0 
1 -52 -87 0 
1 -60 -43 0 
1 -111 149 0 
1 -124 4 0 
1 12 96 0 
1 13 -145 0 
1 138 43 0 
1 66 -146 0 
1 -42 99 0 
1 131 -77 0 
1 -146 -92 0 
1 35 -63 0 
1 -15 -105 0 
1 -65 62 0 
1 24 16 0 
1 107 -84 0 
1 59 43 0 
1 -93 -147 0 
1 38 4 0 
1 -90 -65 0 
1 131 -40 0 
1 52 -47 0 
1 -83 86 0 
1 -113 11 0 
1 79 -130 0 
1 43 -67 0 
1 77 -89 0 
1 149 139 0 
1 93 -58 0 
1 14 140 0 
1 10 89 0 
1 -59 -135 0 
1 -29 -82 0 
1 -1 -144 0 
1 -16 149 0 
1 -46 35 0 
1 44 -39 0 
1 72 -4 0 
1 -34 -115 0 
1 31 42 0 
1 -15 -63 0 
1 75 -76 0 
1 -107 -3 0 
1 -92 94 0 
1 92 -123 0 
1 29 -120 0 
1 -7 -132 0 
1 76 144 0 
1 144 60 0 
1 -72 15 0 
1 -43 -121 0 
1 70 -129 0 
1 -135 109 0 
1 83 -70 0 
1 -90 128 0 
1 147 143 0 
1 14 100 0 
1 -110 -116 0 
1 35 -143 0 
1 -128 129 0 
1 82 37 0 
1 52 -38 0 
1 137 119 0 
1 -116 137 0 
1 -30 134 0 
1 92 -70 0 
1 127 115 0 
1 29 -39 0 
1 102 18 0 
1 -7 31 0 
1 -131 -110 0 
1 -71 -23 0 
1 54 -149 0 
1 72 144 0 
1 -71 47 0 
1 -106 -107 0 
1 89 3 0 
1 -99 -89 0 
1 4 12 0 
1 -39 -51 0 
1 -102 8 0 
1 -30 103 0 
1 -114 -105 0 
1 122 -74 0 
1 -107 -148 0 
1 6 74 0 
1 83 116 0 
1 62 -60 0 
1 -31 131 0 
1 -70 -12 0 
1 -105 17 0 
1 105 -89 0 
1 -105 -148 0 
1 -75 -92 0 
1 -118 107 0 
1 -109 17 0 
1 40 111 0 
1 -117 -127 0 
1 -112 85 0 
1 62 40 0 
1 60 10 0 
1 110 104 0 
1 -26 121 0 
1 -140 -59 0 
1 128 -126 0 
1 -105 122 0 
1 35 46 0 
1 145 -130 0 
1 64 131 0 
1 -31 37 0 
1 -136 -131 0 
1 44 41 0 
1 104 48 0 
1 144 -138 0 
1 111 -115 0 
1 -51 43 0 
